NAME: tsp30-13
TYPE: TSP
DIMENSION: 30
EDGE_WEIGHT_TYPE: EUC_2D
NODE_COORD_SECTION
0 93 29
1 43 71
2 68 84
3 1 81
4 61 64
5 100 66
6 2 98
7 46 82
8 89 91
9 21 69
10 8 97
11 87 85
12 41 9
13 64 49
14 23 82
15 32 49
16 93 90
17 45 79
18 80 24
19 64 86
20 73 97
21 95 38
22 26 22
23 88 79
24 59 74
25 34 19
26 56 0
27 48 39
28 29 33
29 16 7
EOF